44
raw_data/mm-rcpsp/MMLIB50/J509_4.mm
Time limit set to 60 seconds
Running CP solver
/home/omastto1/General-Optimization-Solver/src/solvers/mmrcpsp.py:42(stream:276:6): Warning: Cumulative expression 'pulse': height is zero, expression is zero everywhere.
                                                                                               VarCumulAtom_419 = pulse(task_0_mode_0, 0)
/home/omastto1/General-Optimization-Solver/src/solvers/mmrcpsp.py:42(stream:276:3908): Warning: Cumulative expression 'pulse': height is zero, expression is zero everywhere.
                                                                                                  VarCumulAtom_570 = pulse(task_51_mode_0, 0)
/home/omastto1/General-Optimization-Solver/src/solvers/mmrcpsp.py:42(stream:277:6): Warning: Cumulative expression 'pulse': height is zero, expression is zero everywhere.
                                                                                               VarCumulAtom_574 = pulse(task_0_mode_0, 0)
/home/omastto1/General-Optimization-Solver/src/solvers/mmrcpsp.py:42(stream:277:3908): Warning: Cumulative expression 'pulse': height is zero, expression is zero everywhere.
                                                                                                  VarCumulAtom_725 = pulse(task_51_mode_0, 0)
 ! --------------------------------------------------- CP Optimizer 20.1.0.0 --
 ! Minimization problem - 205 variables, 314 constraints
 ! TimeLimit            = 60
 ! Workers              = 14
 ! LogVerbosity         = Terse
 ! Initial process time : 0.00s (0.00s extraction + 0.00s propagation)
 !  . Log search space  : 522.6 (before), 522.6 (after)
 !  . Memory usage      : 1.3 MB (before), 1.3 MB (after)
 ! Using parallel search with 14 workers.
 ! ----------------------------------------------------------------------------
 !          Best Branches  Non-fixed    W       Branch decision
                        0        205                 -
 + New bound is 14
 ! Using iterative diving.
 ! Using temporal relaxation.
 *            48      109  0.83s        1      (gap is 70.83%)
 *            46      306  0.83s        1      (gap is 69.57%)
 *            33     1072  0.83s        1      (gap is 57.58%)
 *            32     1247  0.83s        1      (gap is 56.25%)
 *            31     1546  0.83s        3      (gap is 54.84%)
 *            29     2528  1.59s        4      (gap is 51.72%)
 ! Using failure-directed search.
 *            28    14035  3.86s        5      (gap is 50.00%)
              28    15357         44    1        15 >= startOf(task_51)
 + New bound is 15 (gap is 46.43%)
              28    17057        132    1        16 >= startOf(task_51_mode_0)
 + New bound is 16 (gap is 42.86%)
 *            27    46427  10.49s       5      (gap is 40.74%)
 ! ----------------------------------------------------------------------------
 ! Search terminated by limit, 8 solutions found.
 ! Best objective         : 27 (gap is 40.74%)
 ! Best bound             : 16
 ! ----------------------------------------------------------------------------
 ! Number of branches     : 5374599
 ! Number of fails        : 1090769
 ! Total memory usage     : 19.9 MB (19.7 MB CP Optimizer + 0.2 MB Concert)
 ! Time spent in solve    : 60.04s (60.04s engine + 0.00s extraction)
 ! Search speed (br. / s) : 89531.9
 ! ----------------------------------------------------------------------------
task_0: (start=0, end=0, size=0, length=0)
Task 0 is scheduled in mode 0 from 0 to 0
task_1: (start=5, end=9, size=4, length=4)
Task 1 is scheduled in mode 0 from 5 to 9
task_2: (start=0, end=3, size=3, length=3)
Task 2 is scheduled in mode 0 from 0 to 3
task_3: (start=1, end=9, size=8, length=8)
Task 3 is scheduled in mode 2 from 1 to 9
task_4: (start=2, end=10, size=8, length=8)
Task 4 is scheduled in mode 1 from 2 to 10
task_5: (start=2, end=5, size=3, length=3)
Task 5 is scheduled in mode 0 from 2 to 5
task_6: (start=0, end=1, size=1, length=1)
Task 6 is scheduled in mode 0 from 0 to 1
task_7: (start=3, end=5, size=2, length=2)
Task 7 is scheduled in mode 0 from 3 to 5
task_8: (start=0, end=1, size=1, length=1)
Task 8 is scheduled in mode 0 from 0 to 1
task_9: (start=1, end=7, size=6, length=6)
Task 9 is scheduled in mode 1 from 1 to 7
task_10: (start=3, end=6, size=3, length=3)
Task 10 is scheduled in mode 1 from 3 to 6
task_11: (start=0, end=2, size=2, length=2)
Task 11 is scheduled in mode 1 from 0 to 2
task_12: (start=0, end=2, size=2, length=2)
Task 12 is scheduled in mode 0 from 0 to 2
task_13: (start=11, end=13, size=2, length=2)
Task 13 is scheduled in mode 0 from 11 to 13
task_14: (start=2, end=9, size=7, length=7)
Task 14 is scheduled in mode 2 from 2 to 9
task_15: (start=9, end=10, size=1, length=1)
Task 15 is scheduled in mode 0 from 9 to 10
task_16: (start=11, end=12, size=1, length=1)
Task 16 is scheduled in mode 0 from 11 to 12
task_17: (start=6, end=9, size=3, length=3)
Task 17 is scheduled in mode 0 from 6 to 9
task_18: (start=3, end=12, size=9, length=9)
Task 18 is scheduled in mode 2 from 3 to 12
task_19: (start=10, end=12, size=2, length=2)
Task 19 is scheduled in mode 0 from 10 to 12
task_20: (start=12, end=16, size=4, length=4)
Task 20 is scheduled in mode 0 from 12 to 16
task_21: (start=13, end=15, size=2, length=2)
Task 21 is scheduled in mode 0 from 13 to 15
task_22: (start=9, end=11, size=2, length=2)
Task 22 is scheduled in mode 0 from 9 to 11
task_23: (start=7, end=11, size=4, length=4)
Task 23 is scheduled in mode 0 from 7 to 11
task_24: (start=14, end=19, size=5, length=5)
Task 24 is scheduled in mode 1 from 14 to 19
task_25: (start=12, end=13, size=1, length=1)
Task 25 is scheduled in mode 0 from 12 to 13
task_26: (start=13, end=14, size=1, length=1)
Task 26 is scheduled in mode 0 from 13 to 14
task_27: (start=10, end=11, size=1, length=1)
Task 27 is scheduled in mode 0 from 10 to 11
task_28: (start=9, end=10, size=1, length=1)
Task 28 is scheduled in mode 0 from 9 to 10
task_29: (start=11, end=12, size=1, length=1)
Task 29 is scheduled in mode 0 from 11 to 12
task_30: (start=12, end=13, size=1, length=1)
Task 30 is scheduled in mode 0 from 12 to 13
task_31: (start=24, end=25, size=1, length=1)
Task 31 is scheduled in mode 0 from 24 to 25
task_32: (start=22, end=23, size=1, length=1)
Task 32 is scheduled in mode 0 from 22 to 23
task_33: (start=23, end=27, size=4, length=4)
Task 33 is scheduled in mode 1 from 23 to 27
task_34: (start=15, end=16, size=1, length=1)
Task 34 is scheduled in mode 0 from 15 to 16
task_35: (start=16, end=22, size=6, length=6)
Task 35 is scheduled in mode 0 from 16 to 22
task_36: (start=25, end=27, size=2, length=2)
Task 36 is scheduled in mode 0 from 25 to 27
task_37: (start=18, end=19, size=1, length=1)
Task 37 is scheduled in mode 0 from 18 to 19
task_38: (start=14, end=24, size=10, length=10)
Task 38 is scheduled in mode 2 from 14 to 24
task_39: (start=15, end=16, size=1, length=1)
Task 39 is scheduled in mode 0 from 15 to 16
task_40: (start=22, end=24, size=2, length=2)
Task 40 is scheduled in mode 0 from 22 to 24
task_41: (start=16, end=18, size=2, length=2)
Task 41 is scheduled in mode 0 from 16 to 18
task_42: (start=23, end=27, size=4, length=4)
Task 42 is scheduled in mode 0 from 23 to 27
task_43: (start=13, end=15, size=2, length=2)
Task 43 is scheduled in mode 1 from 13 to 15
task_44: (start=16, end=23, size=7, length=7)
Task 44 is scheduled in mode 2 from 16 to 23
task_45: (start=18, end=22, size=4, length=4)
Task 45 is scheduled in mode 1 from 18 to 22
task_46: (start=25, end=27, size=2, length=2)
Task 46 is scheduled in mode 0 from 25 to 27
task_47: (start=24, end=25, size=1, length=1)
Task 47 is scheduled in mode 1 from 24 to 25
task_48: (start=15, end=18, size=3, length=3)
Task 48 is scheduled in mode 2 from 15 to 18
task_49: (start=13, end=15, size=2, length=2)
Task 49 is scheduled in mode 0 from 13 to 15
task_50: (start=19, end=27, size=8, length=8)
Task 50 is scheduled in mode 0 from 19 to 27
task_51: (start=27, end=27, size=0, length=0)
Task 51 is scheduled in mode 0 from 27 to 27
Feasible solution found
Objective value: 27
Solution is 92.9 % worse than the lower bound.
